NAME : tsp_254_sol.txt
COMMENT : OR-Tools Guided Local Search
TYPE : TOUR
DIMENSION : 50
COST : 5649
STATUS : ROUTING_SUCCESS
GAP : 0.00% (Reference Solution)
TOUR_SECTION
1
4
13
32
17
35
34
12
46
23
48
14
3
15
41
45
31
49
9
16
33
6
7
8
2
29
37
21
42
36
25
28
43
24
50
22
20
27
30
19
18
40
10
5
44
38
47
39
11
26
-1
